param n := 120;
param c := 3000
param : V : p w :=
   0	  44	 458
   1	  60	 252
   2	  26	 290
   3	  75	 497
   4	  36	 250
   5	  17	 253
   6	  45	 446
   7	  78	 276
   8	  17	 278
   9	  53	 387
  10	  42	 274
  11	  20	 339
  12	  56	 462
  13	  78	 268
  14	  66	 270
  15	  94	 472
  16	  62	 258
  17	  91	 270
  18	  26	 377
  19	  72	 276
  20	  27	 347
  21	  56	 484
  22	  79	 253
  23	   2	 263
  24	  82	 490
  25	  70	 252
  26	  85	 258
  27	  11	 414
  28	  96	 250
  29	  64	 336
  30	  94	 493
  31	  74	 253
  32	  87	 254
  33	  76	 470
  34	   5	 257
  35	   9	 273
  36	  56	 403
  37	  43	 262
  38	  16	 335
  39	  77	 433
  40	  41	 273
  41	  53	 294
  42	  74	 375
  43	  79	 276
  44	   3	 349
  45	  98	 422
  46	  39	 276
  47	  31	 302
  48	  57	 446
  49	  82	 274
  50	  23	 280
  51	  49	 352
  52	  42	 318
  53	  55	 330
  54	  78	 402
  55	  67	 269
  56	   6	 329
  57	  13	 436
  58	  56	 254
  59	  23	 310
  60	  10	 357
  61	  47	 268
  62	  49	 375
  63	  94	 410
  64	  71	 262
  65	  75	 328
  66	  42	 352
  67	  72	 275
  68	  21	 373
  69	   6	 423
  70	  62	 262
  71	  29	 315
  72	  82	 426
  73	  77	 266
  74	  29	 308
  75	   5	 388
  76	  75	 251
  77	  74	 361
  78	  67	 386
  79	  83	 272
  80	  70	 342
  81	  39	 374
  82	   5	 254
  83	  14	 372
  84	  35	 408
  85	   7	 287
  86	  92	 305
  87	  19	 442
  88	  58	 252
  89	  79	 306
  90	  15	 364
  91	  63	 302
  92	  54	 334
  93	  63	 363
  94	  22	 265
  95	  69	 372
  96	   9	 396
  97	  90	 292
  98	  69	 312
  99	   5	 485
 100	  34	 255
 101	  77	 260
 102	  17	 436
 103	  99	 256
 104	   3	 308
 105	  22	 445
 106	   7	 270
 107	  86	 285
 108	  16	 419
 109	  81	 275
 110	  59	 306
 111	   7	 427
 112	  84	 250
 113	 100	 323
 114	  83	 490
 115	  71	 252
 116	  24	 258
 117	  64	 496
 118	  11	 250
 119	  97	 254
;

set E :=
   0	   1
   0	   7
   0	   8
   0	   9
   0	  11
   0	  12
   0	  17
   0	  19
   0	  23
   0	  27
   0	  43
   0	  46
   0	  50
   0	  52
   0	  54
   0	  65
   0	  66
   0	  70
   0	  71
   0	  73
   0	  74
   0	  76
   0	  79
   0	  83
   0	  86
   0	  88
   0	  91
   0	  96
   0	 101
   0	 106
   0	 110
   0	 111
   0	 112
   0	 117
   1	   7
   1	  13
   1	  20
   1	  21
   1	  24
   1	  25
   1	  26
   1	  28
   1	  29
   1	  33
   1	  38
   1	  41
   1	  47
   1	  58
   1	  60
   1	  63
   1	  67
   1	  69
   1	  73
   1	  74
   1	  79
   1	  83
   1	  85
   1	  86
   1	  96
   1	 100
   1	 101
   1	 105
   1	 106
   1	 118
   2	  15
   2	  18
   2	  22
   2	  23
   2	  27
   2	  28
   2	  33
   2	  34
   2	  35
   2	  37
   2	  39
   2	  46
   2	  54
   2	  57
   2	  63
   2	  66
   2	  71
   2	  75
   2	  85
   2	  86
   2	  88
   2	  89
   2	  91
   2	  92
   2	  94
   2	 101
   2	 104
   2	 112
   2	 115
   3	   4
   3	   5
   3	   7
   3	  11
   3	  19
   3	  20
   3	  21
   3	  23
   3	  27
   3	  29
   3	  33
   3	  37
   3	  43
   3	  47
   3	  48
   3	  50
   3	  52
   3	  54
   3	  56
   3	  58
   3	  63
   3	  67
   3	  71
   3	  72
   3	  74
   3	  77
   3	  86
   3	  88
   3	  89
   3	  90
   3	  97
   3	  98
   3	  99
   3	 101
   3	 103
   3	 106
   3	 114
   3	 116
   4	  13
   4	  14
   4	  17
   4	  20
   4	  21
   4	  24
   4	  26
   4	  32
   4	  33
   4	  35
   4	  36
   4	  37
   4	  39
   4	  43
   4	  44
   4	  47
   4	  48
   4	  50
   4	  58
   4	  59
   4	  67
   4	  70
   4	  74
   4	  76
   4	  87
   4	  88
   4	  89
   4	  97
   4	  99
   4	 103
   4	 115
   5	  12
   5	  17
   5	  20
   5	  21
   5	  23
   5	  26
   5	  27
   5	  32
   5	  34
   5	  36
   5	  38
   5	  40
   5	  46
   5	  52
   5	  55
   5	  60
   5	  61
   5	  62
   5	  64
   5	  68
   5	  70
   5	  71
   5	  73
   5	  77
   5	  81
   5	  86
   5	  91
   5	  94
   5	  96
   5	 107
   5	 109
   5	 114
   5	 117
   5	 118
   6	   8
   6	  17
   6	  19
   6	  22
   6	  23
   6	  30
   6	  34
   6	  35
   6	  42
   6	  44
   6	  48
   6	  49
   6	  56
   6	  61
   6	  62
   6	  63
   6	  65
   6	  70
   6	  77
   6	  90
   6	  91
   6	  95
   6	  97
   6	 102
   6	 108
   6	 112
   6	 113
   6	 118
   7	   9
   7	  13
   7	  14
   7	  19
   7	  21
   7	  24
   7	  28
   7	  29
   7	  36
   7	  38
   7	  44
   7	  45
   7	  54
   7	  55
   7	  56
   7	  60
   7	  65
   7	  68
   7	  71
   7	  72
   7	  76
   7	  81
   7	  82
   7	  83
   7	  84
   7	  87
   7	  88
   7	  93
   7	  94
   7	  99
   7	 106
   7	 107
   7	 108
   7	 111
   7	 118
   7	 119
   8	  10
   8	  22
   8	  24
   8	  28
   8	  29
   8	  31
   8	  32
   8	  39
   8	  42
   8	  44
   8	  53
   8	  54
   8	  58
   8	  60
   8	  62
   8	  70
   8	  73
   8	  74
   8	  81
   8	  84
   8	  86
   8	  90
   8	  91
   8	  92
   8	  96
   8	  97
   8	 103
   8	 104
   8	 107
   8	 108
   8	 116
   9	  11
   9	  15
   9	  18
   9	  22
   9	  23
   9	  30
   9	  33
   9	  34
   9	  38
   9	  41
   9	  42
   9	  45
   9	  48
   9	  49
   9	  53
   9	  63
   9	  74
   9	  75
   9	  76
   9	  81
   9	  82
   9	  84
   9	  86
   9	  88
   9	  94
   9	  98
   9	 101
   9	 106
   9	 109
   9	 110
   9	 112
   9	 113
   9	 114
   9	 115
   9	 118
   9	 119
  10	  16
  10	  18
  10	  21
  10	  22
  10	  23
  10	  29
  10	  30
  10	  32
  10	  35
  10	  36
  10	  40
  10	  50
  10	  52
  10	  53
  10	  60
  10	  63
  10	  64
  10	  65
  10	  68
  10	  74
  10	  75
  10	  80
  10	  82
  10	  84
  10	  88
  10	  92
  10	  93
  10	  94
  10	  96
  10	  99
  10	 103
  10	 109
  10	 110
  10	 111
  10	 113
  10	 117
  11	  16
  11	  18
  11	  19
  11	  21
  11	  26
  11	  29
  11	  34
  11	  36
  11	  37
  11	  39
  11	  41
  11	  42
  11	  43
  11	  44
  11	  46
  11	  54
  11	  56
  11	  57
  11	  60
  11	  62
  11	  66
  11	  67
  11	  69
  11	  72
  11	  73
  11	  75
  11	  76
  11	  77
  11	  81
  11	  82
  11	  83
  11	  85
  11	  93
  11	  95
  11	 102
  11	 103
  11	 107
  11	 110
  11	 118
  11	 119
  12	  13
  12	  19
  12	  20
  12	  24
  12	  32
  12	  33
  12	  48
  12	  49
  12	  57
  12	  61
  12	  63
  12	  66
  12	  68
  12	  69
  12	  70
  12	  72
  12	  73
  12	  77
  12	  78
  12	  79
  12	  84
  12	  86
  12	 101
  12	 105
  12	 106
  12	 107
  12	 108
  12	 112
  12	 117
  13	  16
  13	  23
  13	  24
  13	  27
  13	  28
  13	  33
  13	  34
  13	  35
  13	  37
  13	  40
  13	  45
  13	  47
  13	  50
  13	  52
  13	  53
  13	  54
  13	  55
  13	  56
  13	  61
  13	  63
  13	  68
  13	  74
  13	  77
  13	  78
  13	  83
  13	  89
  13	  90
  13	  92
  13	  95
  13	  99
  13	 103
  13	 109
  13	 113
  13	 116
  13	 117
  14	  18
  14	  28
  14	  29
  14	  32
  14	  35
  14	  39
  14	  40
  14	  41
  14	  43
  14	  45
  14	  49
  14	  55
  14	  56
  14	  64
  14	  68
  14	  71
  14	  81
  14	  88
  14	  91
  14	  94
  14	  97
  14	 108
  14	 109
  14	 113
  14	 114
  15	  16
  15	  19
  15	  20
  15	  23
  15	  24
  15	  25
  15	  27
  15	  32
  15	  33
  15	  41
  15	  44
  15	  50
  15	  56
  15	  61
  15	  62
  15	  65
  15	  72
  15	  76
  15	  77
  15	  78
  15	  79
  15	  81
  15	  91
  15	  92
  15	  96
  15	 100
  15	 104
  15	 105
  15	 108
  15	 110
  15	 115
  15	 116
  15	 119
  16	  25
  16	  27
  16	  30
  16	  32
  16	  35
  16	  38
  16	  40
  16	  44
  16	  47
  16	  50
  16	  52
  16	  54
  16	  56
  16	  57
  16	  62
  16	  68
  16	  69
  16	  71
  16	  77
  16	  80
  16	  81
  16	  82
  16	  83
  16	  86
  16	  87
  16	  88
  16	  89
  16	  90
  16	  91
  16	  93
  16	  96
  16	 100
  16	 101
  16	 103
  16	 105
  16	 108
  16	 110
  17	  18
  17	  26
  17	  28
  17	  29
  17	  32
  17	  37
  17	  40
  17	  43
  17	  48
  17	  51
  17	  55
  17	  58
  17	  64
  17	  65
  17	  73
  17	  74
  17	  77
  17	  81
  17	  84
  17	  85
  17	  86
  17	  88
  17	  89
  17	  95
  17	  99
  17	 100
  17	 101
  17	 104
  17	 109
  17	 110
  18	  19
  18	  23
  18	  29
  18	  30
  18	  31
  18	  33
  18	  35
  18	  41
  18	  50
  18	  57
  18	  58
  18	  61
  18	  62
  18	  63
  18	  68
  18	  73
  18	  75
  18	  77
  18	  80
  18	  83
  18	  84
  18	  85
  18	  86
  18	  89
  18	  90
  18	  91
  18	  93
  18	 101
  18	 104
  18	 109
  18	 112
  19	  23
  19	  25
  19	  31
  19	  36
  19	  38
  19	  42
  19	  45
  19	  47
  19	  52
  19	  57
  19	  58
  19	  63
  19	  65
  19	  69
  19	  70
  19	  71
  19	  74
  19	  75
  19	  78
  19	  79
  19	  82
  19	  87
  19	  89
  19	  91
  19	 110
  19	 111
  19	 117
  20	  21
  20	  23
  20	  26
  20	  27
  20	  33
  20	  36
  20	  38
  20	  44
  20	  45
  20	  51
  20	  54
  20	  57
  20	  58
  20	  65
  20	  67
  20	  68
  20	  69
  20	  70
  20	  71
  20	  77
  20	  79
  20	  80
  20	  83
  20	  85
  20	  86
  20	  88
  20	  90
  20	  91
  20	  96
  20	  99
  20	 102
  20	 104
  20	 105
  20	 106
  20	 111
  20	 119
  21	  25
  21	  28
  21	  36
  21	  42
  21	  46
  21	  49
  21	  52
  21	  53
  21	  56
  21	  57
  21	  58
  21	  62
  21	  64
  21	  65
  21	  66
  21	  76
  21	  78
  21	  82
  21	  83
  21	  86
  21	  89
  21	  91
  21	  94
  21	  98
  21	 102
  21	 103
  21	 105
  21	 109
  21	 110
  21	 111
  21	 114
  21	 115
  21	 116
  22	  25
  22	  32
  22	  35
  22	  36
  22	  37
  22	  38
  22	  43
  22	  44
  22	  46
  22	  49
  22	  55
  22	  65
  22	  68
  22	  69
  22	  72
  22	  76
  22	  80
  22	  81
  22	  82
  22	  85
  22	  86
  22	  87
  22	  90
  22	  91
  22	  93
  22	 100
  22	 102
  22	 104
  22	 109
  22	 112
  22	 116
  22	 119
  23	  24
  23	  28
  23	  29
  23	  33
  23	  44
  23	  46
  23	  47
  23	  48
  23	  59
  23	  64
  23	  67
  23	  76
  23	  81
  23	  89
  23	  90
  23	  93
  23	  97
  23	 105
  23	 106
  23	 108
  23	 112
  23	 113
  23	 116
  24	  35
  24	  42
  24	  45
  24	  46
  24	  56
  24	  58
  24	  59
  24	  68
  24	  71
  24	  75
  24	  77
  24	  78
  24	  79
  24	  80
  24	  88
  24	  91
  24	  92
  24	  94
  24	  96
  24	  98
  24	 102
  24	 104
  24	 111
  24	 112
  24	 113
  24	 114
  24	 117
  24	 119
  25	  27
  25	  28
  25	  33
  25	  35
  25	  39
  25	  42
  25	  44
  25	  45
  25	  49
  25	  53
  25	  55
  25	  57
  25	  58
  25	  60
  25	  61
  25	  65
  25	  66
  25	  67
  25	  69
  25	  71
  25	  73
  25	  76
  25	  84
  25	  85
  25	  86
  25	  87
  25	  89
  25	  94
  25	  96
  25	  97
  25	 103
  25	 105
  25	 106
  25	 111
  25	 112
  25	 113
  25	 115
  26	  30
  26	  32
  26	  35
  26	  36
  26	  54
  26	  57
  26	  58
  26	  59
  26	  61
  26	  62
  26	  64
  26	  68
  26	  69
  26	  75
  26	  77
  26	  81
  26	  82
  26	  83
  26	  90
  26	  97
  26	  99
  26	 103
  26	 105
  26	 112
  26	 114
  26	 115
  26	 118
  27	  28
  27	  29
  27	  30
  27	  31
  27	  37
  27	  39
  27	  43
  27	  44
  27	  46
  27	  58
  27	  60
  27	  64
  27	  69
  27	  74
  27	  78
  27	  82
  27	  83
  27	  89
  27	  90
  27	  93
  27	  94
  27	  95
  27	  96
  27	 114
  27	 116
  27	 119
  28	  29
  28	  35
  28	  37
  28	  38
  28	  40
  28	  47
  28	  52
  28	  58
  28	  60
  28	  63
  28	  65
  28	  66
  28	  68
  28	  71
  28	  72
  28	  74
  28	  76
  28	  78
  28	  87
  28	  90
  28	  91
  28	  95
  28	  96
  28	  99
  28	 101
  28	 104
  28	 105
  28	 108
  28	 112
  28	 118
  29	  40
  29	  41
  29	  42
  29	  43
  29	  44
  29	  46
  29	  48
  29	  53
  29	  54
  29	  55
  29	  58
  29	  62
  29	  64
  29	  65
  29	  67
  29	  71
  29	  72
  29	  73
  29	  76
  29	  77
  29	  80
  29	  86
  29	  87
  29	  88
  29	  91
  29	  93
  29	  94
  29	  95
  29	  97
  29	 100
  29	 101
  29	 103
  29	 109
  29	 114
  29	 117
  29	 118
  30	  37
  30	  41
  30	  42
  30	  46
  30	  62
  30	  67
  30	  68
  30	  69
  30	  71
  30	  72
  30	  75
  30	  76
  30	  78
  30	  80
  30	  81
  30	  82
  30	  88
  30	  90
  30	  93
  30	  94
  30	  99
  30	 100
  30	 103
  30	 104
  30	 106
  30	 107
  30	 112
  30	 115
  30	 118
  31	  32
  31	  39
  31	  40
  31	  41
  31	  43
  31	  45
  31	  47
  31	  48
  31	  52
  31	  53
  31	  55
  31	  59
  31	  70
  31	  74
  31	  78
  31	  80
  31	  81
  31	  83
  31	  84
  31	  86
  31	  87
  31	  88
  31	  89
  31	  91
  31	  93
  31	  97
  31	 101
  31	 104
  31	 106
  31	 111
  31	 112
  31	 114
  31	 115
  31	 118
  32	  33
  32	  39
  32	  41
  32	  45
  32	  47
  32	  51
  32	  60
  32	  61
  32	  63
  32	  68
  32	  70
  32	  71
  32	  74
  32	  77
  32	  82
  32	  86
  32	  88
  32	  92
  32	 101
  32	 104
  32	 105
  32	 109
  32	 115
  33	  35
  33	  36
  33	  38
  33	  46
  33	  49
  33	  50
  33	  51
  33	  55
  33	  56
  33	  57
  33	  60
  33	  63
  33	  65
  33	  66
  33	  70
  33	  80
  33	  86
  33	  91
  33	  93
  33	  94
  33	  95
  33	  96
  33	 100
  33	 102
  33	 113
  33	 116
  33	 117
  33	 118
  34	  37
  34	  39
  34	  41
  34	  50
  34	  51
  34	  54
  34	  56
  34	  57
  34	  59
  34	  64
  34	  66
  34	  69
  34	  71
  34	  73
  34	  74
  34	  76
  34	  78
  34	  81
  34	  82
  34	  86
  34	  87
  34	 102
  34	 107
  34	 108
  34	 110
  34	 115
  34	 116
  34	 117
  34	 118
  35	  39
  35	  40
  35	  41
  35	  42
  35	  51
  35	  55
  35	  56
  35	  61
  35	  64
  35	  66
  35	  70
  35	  76
  35	  79
  35	  80
  35	  85
  35	  89
  35	  90
  35	  92
  35	  94
  35	  99
  35	 108
  35	 115
  35	 116
  35	 117
  35	 118
  35	 119
  36	  38
  36	  41
  36	  45
  36	  56
  36	  61
  36	  67
  36	  72
  36	  83
  36	  84
  36	  86
  36	  88
  36	  90
  36	  98
  36	 100
  36	 104
  36	 108
  36	 109
  36	 115
  36	 116
  36	 118
  37	  45
  37	  48
  37	  54
  37	  55
  37	  58
  37	  60
  37	  65
  37	  75
  37	  82
  37	  91
  37	  92
  37	  93
  37	  94
  37	  98
  37	 104
  37	 105
  37	 110
  37	 112
  37	 114
  37	 116
  37	 117
  38	  39
  38	  40
  38	  49
  38	  50
  38	  59
  38	  71
  38	  73
  38	  76
  38	  83
  38	  86
  38	  89
  38	  93
  38	  95
  38	  99
  38	 102
  38	 110
  38	 118
  39	  46
  39	  47
  39	  52
  39	  54
  39	  58
  39	  63
  39	  64
  39	  67
  39	  69
  39	  71
  39	  77
  39	  80
  39	  83
  39	  85
  39	  88
  39	  97
  39	 100
  39	 105
  39	 108
  39	 111
  39	 112
  39	 113
  39	 116
  40	  44
  40	  45
  40	  47
  40	  54
  40	  57
  40	  58
  40	  61
  40	  63
  40	  64
  40	  68
  40	  74
  40	  78
  40	  79
  40	  87
  40	  91
  40	  96
  40	  99
  40	 105
  40	 113
  40	 116
  40	 119
  41	  45
  41	  46
  41	  54
  41	  64
  41	  65
  41	  66
  41	  69
  41	  70
  41	  71
  41	  75
  41	  79
  41	  82
  41	  84
  41	  85
  41	  89
  41	  90
  41	  91
  41	  95
  41	  98
  41	 108
  41	 109
  41	 112
  41	 117
  42	  46
  42	  49
  42	  50
  42	  52
  42	  53
  42	  55
  42	  57
  42	  58
  42	  65
  42	  67
  42	  70
  42	  78
  42	  84
  42	  86
  42	  89
  42	  90
  42	  98
  42	 103
  42	 104
  42	 107
  42	 111
  42	 118
  43	  49
  43	  50
  43	  51
  43	  52
  43	  57
  43	  58
  43	  60
  43	  64
  43	  65
  43	  66
  43	  67
  43	  68
  43	  69
  43	  73
  43	  83
  43	  94
  43	  95
  43	  98
  43	 100
  43	 103
  43	 105
  43	 108
  43	 109
  43	 114
  43	 117
  43	 118
  44	  46
  44	  53
  44	  60
  44	  63
  44	  65
  44	  67
  44	  70
  44	  75
  44	  77
  44	  81
  44	  82
  44	  89
  44	  91
  44	  92
  44	  94
  44	  96
  44	 100
  44	 107
  44	 115
  44	 116
  44	 117
  45	  47
  45	  48
  45	  50
  45	  53
  45	  55
  45	  59
  45	  66
  45	  67
  45	  68
  45	  71
  45	  72
  45	  82
  45	  83
  45	  91
  45	  92
  45	  93
  45	  96
  45	 100
  45	 109
  45	 111
  45	 118
  45	 119
  46	  53
  46	  60
  46	  64
  46	  67
  46	  69
  46	  77
  46	  82
  46	  91
  46	  92
  46	  93
  46	  95
  46	  97
  46	 100
  46	 102
  46	 103
  46	 105
  47	  52
  47	  57
  47	  60
  47	  67
  47	  70
  47	  72
  47	  74
  47	  75
  47	  77
  47	  82
  47	  83
  47	  84
  47	  86
  47	  89
  47	  90
  47	  91
  47	  99
  47	 100
  47	 101
  47	 107
  47	 108
  47	 113
  47	 115
  48	  55
  48	  60
  48	  67
  48	  68
  48	  69
  48	  73
  48	  76
  48	  78
  48	  80
  48	  82
  48	  87
  48	  90
  48	  91
  48	  92
  48	  99
  48	 103
  48	 105
  48	 107
  48	 111
  48	 116
  49	  51
  49	  59
  49	  60
  49	  62
  49	  63
  49	  66
  49	  73
  49	  80
  49	  85
  49	  87
  49	  90
  49	  91
  49	  95
  49	  96
  49	  98
  49	 102
  49	 104
  49	 105
  49	 106
  49	 108
  49	 118
  50	  51
  50	  53
  50	  55
  50	  58
  50	  65
  50	  66
  50	  68
  50	  69
  50	  72
  50	  75
  50	  76
  50	  78
  50	  79
  50	  87
  50	  88
  50	  89
  50	  92
  50	  94
  50	  95
  50	 100
  50	 103
  50	 106
  50	 111
  50	 114
  51	  55
  51	  56
  51	  59
  51	  64
  51	  65
  51	  71
  51	  76
  51	  78
  51	  82
  51	  83
  51	  89
  51	  94
  51	  98
  51	 102
  51	 103
  51	 113
  51	 115
  51	 117
  51	 118
  52	  55
  52	  58
  52	  61
  52	  67
  52	  68
  52	  71
  52	  73
  52	  78
  52	  80
  52	  81
  52	  87
  52	  90
  52	  91
  52	  95
  52	  96
  52	  98
  52	  99
  52	 102
  52	 103
  52	 105
  52	 111
  52	 112
  52	 117
  53	  55
  53	  57
  53	  58
  53	  60
  53	  62
  53	  64
  53	  65
  53	  66
  53	  77
  53	  79
  53	  82
  53	  83
  53	  91
  53	  94
  53	  95
  53	  98
  53	 102
  53	 104
  53	 108
  53	 115
  53	 118
  53	 119
  54	  56
  54	  57
  54	  58
  54	  61
  54	  64
  54	  69
  54	  70
  54	  72
  54	  73
  54	  85
  54	  86
  54	  89
  54	  90
  54	  93
  54	  95
  54	  96
  54	 102
  54	 106
  54	 109
  54	 110
  54	 116
  55	  58
  55	  59
  55	  61
  55	  70
  55	  71
  55	  73
  55	  82
  55	  89
  55	  98
  55	  99
  55	 103
  55	 110
  55	 116
  56	  57
  56	  63
  56	  66
  56	  70
  56	  78
  56	  87
  56	  88
  56	  92
  56	  93
  56	  96
  56	  97
  56	 100
  56	 104
  56	 105
  56	 106
  56	 111
  56	 114
  56	 115
  56	 117
  56	 118
  56	 119
  57	  61
  57	  68
  57	  72
  57	  76
  57	  78
  57	  81
  57	  82
  57	  83
  57	  85
  57	  88
  57	  89
  57	  93
  57	  94
  57	  95
  57	  97
  57	 101
  57	 103
  57	 104
  57	 112
  57	 116
  58	  60
  58	  65
  58	  66
  58	  69
  58	  75
  58	  79
  58	  82
  58	  87
  58	  88
  58	  96
  58	  97
  58	  99
  58	 104
  58	 105
  58	 107
  58	 119
  59	  67
  59	  72
  59	  76
  59	  77
  59	  79
  59	  80
  59	  84
  59	  87
  59	  88
  59	  89
  59	  90
  59	  91
  59	  94
  59	  95
  59	  99
  59	 102
  59	 105
  59	 108
  60	  61
  60	  63
  60	  64
  60	  65
  60	  67
  60	  70
  60	  72
  60	  75
  60	  83
  60	  84
  60	  88
  60	  90
  60	  92
  60	  93
  60	  96
  60	  97
  60	 100
  60	 101
  60	 111
  60	 112
  60	 113
  60	 114
  61	  62
  61	  64
  61	  65
  61	  69
  61	  71
  61	  76
  61	  80
  61	  81
  61	  82
  61	  85
  61	  87
  61	  88
  61	  93
  61	  96
  61	 111
  61	 112
  61	 113
  61	 115
  61	 116
  62	  66
  62	  74
  62	  76
  62	  81
  62	  82
  62	  83
  62	  88
  62	  91
  62	  95
  62	 100
  62	 107
  62	 108
  62	 109
  62	 115
  62	 116
  63	  67
  63	  68
  63	  70
  63	  73
  63	  75
  63	  79
  63	  83
  63	  89
  63	  92
  63	  97
  63	 102
  63	 104
  63	 106
  63	 111
  63	 114
  63	 117
  63	 119
  64	  65
  64	  67
  64	  73
  64	  81
  64	  83
  64	  88
  64	  89
  64	  92
  64	  95
  64	  99
  64	 100
  64	 102
  64	 105
  64	 106
  64	 110
  64	 113
  64	 119
  65	  70
  65	  72
  65	  83
  65	  86
  65	  88
  65	  90
  65	  91
  65	  93
  65	  95
  65	  96
  65	  99
  65	 100
  65	 106
  65	 110
  65	 111
  65	 119
  66	  80
  66	  82
  66	  85
  66	  89
  66	  94
  66	  98
  66	 100
  66	 101
  66	 102
  66	 104
  66	 115
  67	  68
  67	  69
  67	  72
  67	  77
  67	  79
  67	  81
  67	  83
  67	  88
  67	  93
  67	 100
  67	 104
  67	 108
  67	 112
  67	 115
  67	 116
  68	  69
  68	  72
  68	  81
  68	  87
  68	  97
  68	  98
  68	  99
  68	 100
  68	 101
  68	 105
  68	 107
  68	 117
  68	 119
  69	  72
  69	  73
  69	  79
  69	  80
  69	  81
  69	  85
  69	  88
  69	  90
  69	  91
  69	  95
  69	 109
  69	 112
  69	 116
  70	  73
  70	  81
  70	  84
  70	  85
  70	  94
  70	  99
  70	 101
  70	 104
  70	 106
  70	 107
  70	 110
  70	 116
  70	 117
  70	 118
  70	 119
  71	  72
  71	  76
  71	  79
  71	  80
  71	  81
  71	  83
  71	  85
  71	  90
  71	  92
  71	  93
  71	 102
  71	 104
  71	 113
  71	 115
  71	 117
  72	  73
  72	  79
  72	  82
  72	  84
  72	  87
  72	  88
  72	  92
  72	  93
  72	  94
  72	 110
  72	 111
  72	 115
  72	 117
  72	 118
  73	  80
  73	  82
  73	  87
  73	  89
  73	  93
  73	  94
  73	  99
  73	 111
  73	 112
  73	 119
  74	  75
  74	  81
  74	  82
  74	  83
  74	  87
  74	  98
  74	 102
  74	 105
  74	 106
  74	 108
  74	 117
  75	  79
  75	  82
  75	  88
  75	  91
  75	  95
  75	 103
  75	 105
  75	 107
  75	 109
  75	 112
  75	 114
  75	 117
  76	  77
  76	  79
  76	  83
  76	  86
  76	  87
  76	  88
  76	  91
  76	  92
  76	  93
  76	  98
  76	 100
  76	 102
  76	 104
  76	 106
  76	 115
  76	 116
  77	  81
  77	  83
  77	  85
  77	  90
  77	  91
  77	  97
  77	 109
  77	 110
  77	 112
  77	 115
  77	 116
  77	 117
  77	 118
  78	  79
  78	  81
  78	  82
  78	  83
  78	  86
  78	  92
  78	  97
  78	  98
  78	  99
  78	 101
  78	 108
  78	 111
  78	 112
  78	 113
  78	 118
  79	  82
  79	  84
  79	  85
  79	  87
  79	  88
  79	  89
  79	  91
  79	  92
  79	  98
  79	 105
  79	 111
  79	 118
  80	  83
  80	  86
  80	  87
  80	  88
  80	  90
  80	  95
  80	  96
  80	  97
  80	  99
  80	 101
  80	 103
  80	 106
  80	 108
  80	 109
  80	 114
  80	 115
  80	 117
  81	  82
  81	  84
  81	  90
  81	  93
  81	  97
  81	 108
  81	 114
  81	 116
  81	 118
  82	  85
  82	  87
  82	  89
  82	  91
  82	  96
  82	  98
  82	 101
  82	 105
  82	 107
  82	 110
  82	 112
  82	 115
  82	 116
  83	  86
  83	  91
  83	  93
  83	  95
  83	  99
  83	 102
  83	 113
  83	 116
  83	 117
  83	 118
  84	  88
  84	  92
  84	  95
  84	  96
  84	 100
  84	 102
  84	 105
  84	 106
  84	 107
  84	 110
  84	 118
  85	  86
  85	  90
  85	  92
  85	  94
  85	  98
  85	  99
  85	 101
  85	 102
  85	 106
  85	 108
  85	 110
  85	 111
  85	 112
  85	 114
  85	 117
  86	  87
  86	  88
  86	  90
  86	  93
  86	  96
  86	  98
  86	  99
  86	 100
  86	 103
  86	 105
  86	 107
  86	 112
  86	 116
  86	 117
  86	 118
  87	  92
  87	  99
  87	 102
  87	 105
  87	 107
  87	 112
  88	  93
  88	 107
  88	 108
  88	 115
  88	 117
  88	 119
  89	  90
  89	  93
  89	  96
  89	  97
  89	 102
  89	 106
  89	 108
  89	 110
  89	 112
  89	 113
  89	 115
  89	 117
  90	  94
  90	  99
  90	 106
  90	 108
  91	  94
  91	  97
  91	 104
  91	 105
  91	 114
  91	 117
  91	 118
  92	  93
  92	  94
  92	  96
  92	  98
  92	 100
  92	 104
  92	 106
  92	 108
  92	 109
  92	 111
  92	 115
  92	 118
  93	  95
  93	 101
  93	 105
  93	 106
  93	 108
  93	 111
  93	 113
  93	 116
  93	 119
  94	 102
  94	 103
  94	 104
  94	 107
  94	 108
  94	 111
  94	 112
  94	 117
  95	  97
  95	  98
  95	  99
  95	 102
  95	 105
  95	 107
  95	 116
  96	  99
  96	 106
  96	 109
  96	 113
  97	  99
  97	 100
  97	 101
  97	 103
  97	 104
  97	 113
  97	 114
  98	  99
  98	 101
  98	 102
  98	 107
  98	 109
  98	 113
  98	 115
  98	 118
  99	 101
  99	 103
  99	 106
  99	 113
  99	 116
  99	 117
  99	 118
  99	 119
 100	 103
 100	 104
 100	 105
 100	 107
 100	 108
 100	 111
 100	 113
 101	 107
 101	 110
 101	 113
 101	 117
 101	 119
 102	 104
 102	 105
 102	 106
 102	 107
 102	 118
 103	 109
 103	 112
 103	 118
 103	 119
 104	 109
 104	 110
 104	 113
 104	 118
 105	 106
 105	 107
 105	 111
 105	 115
 105	 116
 105	 119
 106	 107
 106	 109
 106	 112
 106	 117
 107	 109
 107	 110
 107	 113
 107	 117
 107	 118
 108	 109
 108	 112
 108	 113
 108	 115
 109	 110
 109	 111
 109	 113
 109	 114
 110	 114
 110	 115
 110	 119
 111	 112
 111	 114
 111	 119
 113	 119
 114	 116
 115	 116
 115	 117
 116	 117
 117	 118
 117	 119
;
